# Objective value = 1.7826261088098565e+02
xt_17 0
yt_17 0
s_0 0
xt_19 0
yt_19 2.1100000000001273e-01
s_1 0
s_2 0
xt_23 0
yt_23 0
s_3 0
s_4 0
s_5 0
xt_28 0
yt_28 0
s_6 0
xt_31 0
yt_31 0
s_7 0
s_8 0
xt_32 9.1200000000000614e-01
yt_32 4.7700000000000387e-01
s_9 0
s_10 0
s_11 0
s_12 0
xt_37 0
yt_37 1.4799999999999613e-01
s_13 1.3999999999981583e-02
s_14 2.2740000000001714e-01
s_15 0
s_16 0
s_17 0
s_18 0
s_19 0
xt_39 0
yt_39 0
s_20 0
xt_40 1.8999999999999773e-01
yt_40 0
s_21 0
s_22 0
s_23 2.8739999999999100e-01
s_24 0
s_25 3.9000000000001478e-02
xt_41 0
yt_41 0
s_26 0
s_27 0
xt_42 8.7999999999993861e-02
yt_42 3.9000000000001478e-02
s_28 0
s_29 9.4599999999999795e-01
s_30 3.2699999999996976e-01
s_31 0
s_32 0
xt_43 0
yt_43 0
s_33 0
s_34 0
s_35 0
xt_44 0
yt_44 4.4600000000002638e-01
s_36 0
s_37 0
s_38 0
s_39 0
s_40 0
s_41 3.1000000000005912e-02
s_42 0
s_43 0
s_44 0
xt_45 0
yt_45 0
s_45 0
xt_49 0
yt_49 0
s_46 0
xt_54 0
yt_54 0
s_47 0
xt_55 0
yt_55 0
s_48 0
xt_61 1.6020000000000039e+00
yt_61 8.2600000000000762e-01
s_49 0
s_50 0
s_51 0
xt_65 2.7400000000002933e-01
yt_65 0
s_52 0
s_53 0
s_54 0
xt_67 0
yt_67 0
s_55 0
xt_69 2.0400000000009300e-02
yt_69 0
s_56 0
s_57 0
s_58 0
s_59 0
s_60 0
s_61 0
xt_70 0
yt_70 3.8999999999987267e-02
s_62 0
s_63 0
s_64 0
xt_71 0
yt_71 0
s_65 0
s_66 0
xt_75 3.7600000000000477e-01
yt_75 0
s_67 0
s_68 0
s_69 0
xt_76 0
yt_76 3.9000000000001478e-02
s_70 0
s_71 0
s_72 0
xt_77 8.7999999999993861e-02
yt_77 2.8740000000000521e-01
s_73 0
s_74 0
xt_78 0
yt_78 0
s_75 0
s_76 0
xt_79 0
yt_79 0
s_77 0
s_78 0
s_79 0
s_80 0
xt_82 0
yt_82 0
s_81 0
xt_84 0
yt_84 0
s_82 0
s_83 0
xt_96 0
yt_96 2.1100000000001273e-01
s_84 0
s_85 0
s_86 0
s_87 0
s_88 0
s_89 0
s_90 0
s_91 0
s_92 0
s_93 0
s_94 0
s_95 0
s_96 0
s_97 0
s_98 0
s_99 0
s_100 0
s_101 0
xt_98 0
yt_98 0
s_102 0
s_103 0
xt_101 0
yt_101 0
s_104 0
s_105 0
xt_102 0
yt_102 0
s_106 0
s_107 0
s_108 0
s_109 0
s_110 0
s_111 0
s_112 0
xt_106 0
yt_106 0
s_113 0
xt_108 0
yt_108 1.3890000000000100e+00
s_114 0
xt_117 0
yt_117 0
s_115 0
s_116 0
xt_118 0
yt_118 0
s_117 0
xt_121 0
yt_121 0
s_118 0
xt_122 0
yt_122 0
s_119 0
s_120 0
xt_123 0
yt_123 1.3000000000005230e-02
s_121 0
s_122 0
s_123 0
s_124 0
xt_124 0
yt_124 0
s_125 0
s_126 0
s_127 0
s_128 0
s_129 0
s_130 0
s_131 0
xt_125 1.3000000000005230e-02
yt_125 2.5600000000002865e-01
s_132 1.3299999999998136e-01
s_133 0
s_134 0
s_135 0
s_136 0
xt_126 0
yt_126 0
s_137 0
s_138 0
s_139 0
s_140 0
xt_127 1.8999999999999773e-01
yt_127 0
s_141 0
s_142 3.7999999999996703e-02
s_143 0
s_144 0
s_145 2.8800000000001091e-01
xt_128 0
yt_128 3.8999999999987267e-02
s_146 0
s_147 0
s_148 0
s_149 3.5999999999987153e-02
xt_129 8.7999999999993861e-02
yt_129 0
s_150 0
s_151 3.7999999999996703e-02
s_152 2.8840000000002419e-01
xt_130 0
yt_130 0
s_153 0
s_154 0
s_155 0
xt_131 0
yt_131 0
s_156 4.7739999999998872e-01
s_157 0
s_158 0
s_159 2.1049999999999613e-01
s_160 0
xt_134 0
yt_134 0
s_161 0
s_162 0
s_163 0
s_164 0
s_165 0
s_166 0
s_167 0
s_168 0
s_169 0
xt_135 0
yt_135 7.3000000000007503e-02
s_170 0
s_171 0
xt_136 0
yt_136 1.4539999999998088e-01
s_172 2.3099999999999454e-01
s_173 0
s_174 0
s_175 0
s_176 0
xt_137 0
yt_137 0
s_177 0
s_178 0
s_179 0
s_180 0
xt_138 0
yt_138 4.7760000000000957e-01
s_181 0
s_182 0
s_183 0
xt_139 0
yt_139 0
s_184 0
s_185 0
s_186 0
s_187 0
xt_140 0
yt_140 4.7700000000000387e-01
s_188 0
s_189 0
xt_141 0
yt_141 0
s_190 0
s_191 0
xt_142 0
yt_142 0
s_192 0
s_193 0
s_194 0
s_195 0
xt_143 0
yt_143 0
s_196 0
s_197 0
xt_144 0
yt_144 0
s_198 0
xt_147 0
yt_147 0
s_199 0
xt_148 5.1699999999999591e-01
yt_148 3.9000000000001478e-02
s_200 0
s_201 0
s_202 0
xt_149 2.0800000000008367e-02
yt_149 0
s_203 0
s_204 0
s_205 0
xt_150 7.8100000000006276e-02
yt_150 3.9000000000001478e-02
s_206 0
s_207 0
s_208 0
s_209 3.3629999999999427e-01
s_210 0
xt_151 0
yt_151 2.0200000000002660e-02
s_211 0
xt_152 5.9687505440493112e+01
yt_152 5.9312505440493112e+01
s_212 0
s_213 0
s_214 0
s_215 0
s_216 0
s_217 0
s_218 0
s_219 0
s_220 0
s_221 0
s_222 0
s_223 0
s_224 0
s_225 0
s_226 0
s_227 0
s_228 0
s_229 0
s_230 0
s_231 0
s_232 0
s_233 0
s_234 0
s_235 0
xt_153 0
yt_153 0
s_236 0
s_237 0
s_238 0
s_239 0
s_240 0
xt_154 0
yt_154 4.7699999999998965e-01
s_241 0
s_242 0
s_243 0
xt_155 0
yt_155 0
s_244 0
xt_163 0
yt_163 0
s_245 0
xt_166 0
yt_166 0
s_246 0
xt_167 0
yt_167 0
s_247 0
s_248 0
xt_169 0
yt_169 0
s_249 0
xt_171 0
yt_171 0
s_250 0
xt_177 0
yt_177 0
s_251 0
s_252 0
xt_178 0
yt_178 0
s_253 0
xt_179 0
yt_179 0
s_254 0
xt_180 0
yt_180 0
s_255 0
xt_181 2.9345500000000015e+00
yt_181 1.7774500000000018e+00
s_256 0
s_257 0
s_258 0
s_259 0
s_260 0
s_261 0
s_262 0
s_263 3.9744999999999209e-01
s_264 0
xt_182 0
yt_182 0
s_265 0
xt_187 0
yt_187 2.0200000000016871e-02
s_266 0
s_267 0
s_268 0
s_269 0
s_270 0
xt_188 0
yt_188 0
s_271 0
xt_190 0
yt_190 0
s_272 0
xt_193 0
yt_193 0
s_273 0
s_274 0
s_275 0
xt_194 0
yt_194 0
s_276 0
s_277 0
s_278 0
s_279 0
s_280 0
xt_195 0
yt_195 0
s_281 0
s_282 0
xt_196 0
yt_196 0
s_283 0
xt_197 0
yt_197 0
s_284 0
xt_203 0
yt_203 2.9940000000001987e-01
s_285 0
s_286 0
s_287 0
s_288 0
s_289 0
s_290 0
s_291 0
s_292 0
s_293 0
s_294 0
s_295 0
s_296 0
s_297 0
s_298 0
xt_204 0
yt_204 0
s_299 0
xt_206 0
yt_206 0
s_300 0
xt_210 0
yt_210 0
s_301 0
s_302 0
xt_211 1.9999999999981810e-02
yt_211 2.0000000000663931e-04
s_303 0
s_304 0
s_305 0
xt_212 0
yt_212 0
s_306 0
s_307 0
xt_213 2.0399999999995089e-02
yt_213 0
s_308 0
s_309 0
s_310 0
xt_214 0
yt_214 0
s_311 0
s_312 0
xt_215 0
yt_215 0
s_313 0
s_314 0
xt_216 0
yt_216 0
s_315 0
s_316 0
xt_217 0
yt_217 0
s_317 0
s_318 0
xt_219 0
yt_219 0
s_319 0
xt_220 0
yt_220 5.0000000000011369e-02
s_320 0
s_321 0
s_322 0
s_323 0
s_324 0
s_325 0
s_326 0
xt_221 0
yt_221 0
s_327 0
s_328 0
s_329 0
s_330 0
s_331 0
s_332 0
xt_222 5.0000000000011369e-02
yt_222 0
s_333 0
s_334 0
s_335 0
s_336 0
s_337 0
xt_223 0
yt_223 0
s_338 0
s_339 0
s_340 0
s_341 0
xt_226 0
yt_226 0
s_342 0
s_343 0
s_344 0
xt_227 0
yt_227 0
s_345 0
s_346 0
s_347 0
s_348 0
s_349 0
xt_228 0
yt_228 0
s_350 0
xt_233 0
yt_233 0
s_351 0
xt_234 0
yt_234 0
s_352 0
s_353 0
s_354 0
xt_235 0
yt_235 0
s_355 0
s_356 0
s_357 0
s_358 0
s_359 0
xt_236 6.0000000000002274e-03
yt_236 0
s_360 0
s_361 0
s_362 0
s_363 0
xt_237 0
yt_237 0
s_364 0
y_17 108.61
x_17 150.33
y_19 1.0728199999999998e+02
x_19 150.736
y_23 107.086
x_23 151.143
y_28 108.509
x_28 152.362
y_31 108.509
x_31 151.549
y_32 107.625
x_32 150.231
y_37 111.409
x_37 155.004
y_39 113.182
x_39 156.223
y_40 113.995
x_40 156.439
y_41 114.402
x_41 157.442
y_42 113.956
x_42 158.343
y_43 113.182
x_43 158.661
y_44 1.1029799999999997e+02
x_44 160.693
y_45 108.712
x_45 165.265
y_49 102.616
x_49 171.056
y_54 109.322
x_54 143.523
y_55 109.404
x_55 141.545
y_61 1.0974100000000001e+02
x_61 145.07
y_65 111.252
x_65 1.3938799999999998e+02
y_67 109.506
x_67 141.444
y_69 113.182
x_69 1.2714460000000000e+02
y_70 114.847
x_70 132.042
y_71 113.995
x_71 136.106
y_75 113.69
x_75 169.096
y_76 115.253
x_76 158.661
y_77 1.1468940000000001e+02
x_77 149.226
y_78 112.776
x_78 148.501
y_79 111.15
x_79 147.688
y_82 110.744
x_82 153.378
y_84 111.15
x_84 152.971
y_96 1.0900899999999999e+02
x_96 161.201
y_98 113.055
x_98 157.416
y_101 109.728
x_101 165.367
y_102 111.43
x_102 161.633
y_106 107.696
x_106 165.57
y_108 1.0630699999999999e+02
x_108 163.741
y_117 110.338
x_117 149.167
y_118 110.744
x_118 149.923
y_121 106.883
x_121 168.618
y_122 109.118
x_122 169.024
y_123 111.442
x_123 168.516
y_124 111.963
x_124 164.96
y_125 1.1211399999999998e+02
x_125 161.519
y_126 113.182
x_126 161.1
y_127 114.198
x_127 160.68
y_128 114.847
x_128 157.34
y_129 114.198
x_129 154.103
y_130 113.182
x_130 153.581
y_131 111.963
x_131 152.768
y_134 103.327
x_134 154.089
y_135 100.149
x_135 152.971
y_136 9.7782999999999987e+01
x_136 153.276
y_137 96.9264
x_137 153.581
y_138 95.636
x_138 153.988
y_139 95.7072
x_139 158.661
y_140 95.6366
x_140 163.335
y_141 97.1296
x_141 163.741
y_142 100.178
x_142 166.179
y_143 104.343
x_143 168.618
y_144 106.274
x_144 168.415
y_147 113.182
x_147 131.432
y_148 113.753
x_148 130.933
y_149 114.402
x_149 1.2942080000000001e+02
y_150 113.245
x_150 1.2779790000000000e+02
y_151 1.1133380000000000e+02
x_151 126.759
y_152 1.6243650544049311e+02
x_152 7.4487494559506899e+01
y_153 95.7072
x_153 147.18
y_154 9.5636600000000016e+01
x_154 153.175
y_155 113.157
x_155 131.915
y_163 102.006
x_163 155.41
y_166 103.429
x_166 158.864
y_167 102.819
x_167 156.832
y_169 102.851
x_169 155.321
y_171 98.933
x_171 155.55
y_177 107.899
x_177 143.523
y_178 107.893
x_178 141.545
y_179 107.893
x_179 145.526
y_180 107.899
x_180 138.036
y_181 1.0873755000000000e+02
x_181 1.2913245000000001e+02
y_182 107.893
x_182 141.444
y_187 1.0066579999999999e+02
x_187 146.571
y_188 102.921
x_188 147.485
y_190 104.242
x_190 147.582
y_193 103.632
x_193 145.656
y_194 105.156
x_194 145.961
y_195 105.461
x_195 146.875
y_196 102.349
x_196 145.577
y_197 105.486
x_197 147.582
y_203 1.0485659999999999e+02
x_203 144.742
y_204 103.632
x_204 142.405
y_206 103.619
x_206 141.508
y_210 105.156
x_210 149.212
y_211 1.0231120000000001e+02
x_211 146.449
y_212 101.092
x_212 146.368
y_213 100.99
x_213 1.4340060000000000e+02
y_214 101.803
x_214 139.764
y_215 103.632
x_215 138.951
y_216 105.258
x_216 139.56
y_217 105.867
x_217 141.897
y_219 105.943
x_219 143.713
y_220 104.867
x_220 147.649
y_221 104.789
x_221 146.332
y_222 104.178
x_222 146.254
y_223 103.511
x_223 146.387
y_226 98.2472
x_226 153.988
y_227 97.3074
x_227 154.419
y_228 98.8314
x_228 153.975
y_233 109.614
x_233 155.25
y_234 107.086
x_234 154.8
y_235 105.867
x_235 154.394
y_236 104.648
x_236 153.982
y_237 104.242
x_237 153.23

